# Solution for model GasLib-40
# Objective value = 6.9884195525788527e+01
loadshed[innode_1] 0
loadshed[innode_2] 0
loadshed[innode_3] 0
loadshed[innode_4] 0
loadshed[innode_5] 0
loadshed[innode_6] 0
loadshed[innode_7] 0
loadshed[innode_8] 0
loadshed[source_1] -4.9397939922303458e-02
loadshed[source_2] 1.0601405079555704e-01
loadshed[source_3] 3.8543634490152823e-01
loadshed[sink_1] 4.8569026037799623e-01
loadshed[sink_2] 0
loadshed[sink_3] 0
loadshed[sink_4] 0
loadshed[sink_5] 8.4411018224215106e-01
loadshed[sink_6] 0
loadshed[sink_7] 0
loadshed[sink_8] 0
loadshed[sink_9] 0
loadshed[sink_10] 0
loadshed[sink_11] 0
loadshed[sink_12] 1
loadshed[sink_13] 0
loadshed[sink_14] 0
loadshed[sink_15] 0
loadshed[sink_16] 0
loadshed[sink_17] 0
loadshed[sink_18] 0
loadshed[sink_19] 0
loadshed[sink_20] 0
loadshed[sink_21] 1
loadshed[sink_22] 0
loadshed[sink_23] 0
loadshed[sink_24] 9.4337329653634916e-01
loadshed[sink_25] 0
loadshed[sink_26] 0
loadshed[sink_27] 0
loadshed[sink_28] 0
loadshed[sink_29] 0
flow[source_1,sink_3] 1.6589961182174471e+02
flow[innode_1,sink_16] 1.6354166666666970e+01
flow[innode_6,sink_13] 1.7322627720023220e+01
flow[sink_13,sink_14] 9.6846105335655253e-01
flow[sink_14,sink_10] -1.5385705613310165e+01
flow[sink_25,sink_26] 0
flow[sink_26,sink_9] 9.3657471140878130e+01
flow[sink_9,sink_18] 7.7303304474211458e+01
flow[sink_26,sink_4] -1.1001163780754479e+02
flow[sink_4,sink_20] -97.2589997653305
flow[sink_18,sink_6] 6.0949137807544787e+01
flow[sink_25,innode_8] -1.3319127848840836e+02
flow[sink_6,sink_7] 1.9829697274143285e+01
flow[sink_6,sink_22] 2.4765273866734855e+01
flow[sink_7,sink_24] 9.2608254622845543e-01
flow[sink_22,sink_1] 8.4111072000681872e+00
flow[sink_24,sink_21] 0
flow[sink_21,sink_12] 0
flow[sink_7,sink_5] 2.5494480612481540e+00
flow[sink_5,sink_17] 0
flow[sink_17,sink_4] 2.9106804708880947e+01
flow[sink_17,sink_8] -4.5460971375547615e+01
flow[sink_3,sink_23] 16.3541666666697
flow[sink_8,sink_20] -6.1815138042214279e+01
flow[sink_25,sink_20] 1.7542830447421147e+02
flow[sink_25,sink_15] -7.5913820372492765e+01
flow[sink_15,sink_29] -5.2731188170479541e+01
flow[sink_29,sink_28] 1.6354166666667879e+01
flow[sink_29,sink_2] 5.5890965535346808e+01
flow[sink_2,sink_15] 3.9536798868680137e+01
flow[sink_29,innode_7] -1.4133048703916072e+02
flow[innode_4,sink_19] 3.6747153915578686e+01
flow[sink_19,innode_3] 6.4448205613310577e+01
flow[innode_4,innode_5] 6.0409385031065142e+01
flow[sink_27,innode_5] -6.0409385031065142e+01
flow[sink_27,sink_19] 4.4055218364398470e+01
flow[sink_10,sink_11] 3.2708333333333641e+01
flow[sink_10,innode_2] 0
flow[sink_10,innode_3] -6.4448205613310577e+01
flow[innode_6,sink_25] -1.7322627720023220e+01
flow[sink_11,innode_1] 1.6354166666666970e+01
flow[sink_19,innode_2] 0
flow[source_3,innode_4] 9.7156538946643821e+01
flow[source_2,innode_7] 1.4133048703916072e+02
flow[sink_3,innode_8] 1.3319127848840836e+02
pressure[innode_1] 7.5798888032870792e+01
pressure[innode_2] 7.5950589340474338e+01
pressure[innode_3] 7.9381815909234973e+01
pressure[innode_4] 81.01325
pressure[innode_5] 80.9716972395789
pressure[innode_6] 7.5320096964031848e+01
pressure[innode_7] 81.01325
pressure[innode_8] 8.0458710973628740e+01
pressure[source_1] 81.01325
pressure[source_2] 81.01325
pressure[source_3] 81.01325
pressure[sink_1] 1.0132500000000002e+00
pressure[sink_2] 7.5817431899458668e+01
pressure[sink_3] 8.0458710973628740e+01
pressure[sink_4] 2.6363153121672458e+01
pressure[sink_5] 1.01325
pressure[sink_6] 2.3457599886894043e+00
pressure[sink_7] 2.0735455119598196e+00
pressure[sink_8] 2.9190879775622946e+01
pressure[sink_9] 6.7703473969314762e+00
pressure[sink_10] 7.5950589340474338e+01
pressure[sink_11] 7.5798888032870792e+01
pressure[sink_12] 1.01325
pressure[sink_13] 7.5224600212291378e+01
pressure[sink_14] 7.5222867068741749e+01
pressure[sink_15] 7.5688352964922544e+01
pressure[sink_16] 7.4777238198053112e+01
pressure[sink_17] 2.7475519220924134e+01
pressure[sink_18] 3.9732834375822157e+00
pressure[sink_19] 7.9524529162598071e+01
pressure[sink_20] 3.3498525574124521e+01
pressure[sink_21] 1.01325
pressure[sink_22] 1.5603568306225175e+00
pressure[sink_23] 8.0293992961968968e+01
pressure[sink_24] 1.01325
pressure[sink_25] 7.5320096964031848e+01
pressure[sink_26] 1.2375988767992046e+01
pressure[sink_27] 8.0470410968362273e+01
pressure[sink_28] 7.6937930859632147e+01
pressure[sink_29] 7.7233213133249322e+01
interdiction[source_1,sink_3] 0
interdiction[innode_1,sink_16] 0
interdiction[innode_6,sink_13] 0
interdiction[sink_13,sink_14] 0
interdiction[sink_14,sink_10] 0
interdiction[sink_25,sink_26] 1
interdiction[sink_26,sink_9] 0
interdiction[sink_9,sink_18] 0
interdiction[sink_26,sink_4] 0
interdiction[sink_4,sink_20] 0
interdiction[sink_18,sink_6] 0
interdiction[sink_25,innode_8] 0
interdiction[sink_6,sink_7] 0
interdiction[sink_6,sink_22] 0
interdiction[sink_7,sink_24] 0
interdiction[sink_22,sink_1] 0
interdiction[sink_24,sink_21] 0
interdiction[sink_21,sink_12] 0
interdiction[sink_7,sink_5] 0
interdiction[sink_5,sink_17] 1
interdiction[sink_17,sink_4] 0
interdiction[sink_17,sink_8] 0
interdiction[sink_3,sink_23] 0
interdiction[sink_8,sink_20] 0
interdiction[sink_25,sink_20] 0
interdiction[sink_25,sink_15] 0
interdiction[sink_15,sink_29] 0
interdiction[sink_29,sink_28] 0
interdiction[sink_29,sink_2] 0
interdiction[sink_2,sink_15] 0
interdiction[sink_29,innode_7] 0
interdiction[innode_4,sink_19] 0
interdiction[sink_19,innode_3] 0
interdiction[innode_4,innode_5] 0
interdiction[sink_27,innode_5] 0
interdiction[sink_27,sink_19] 0
interdiction[sink_10,sink_11] 0
interdiction[sink_10,innode_2] 0
interdiction[sink_10,innode_3] 0
interdiction[innode_6,sink_25] 0
interdiction[sink_11,innode_1] 0
interdiction[sink_19,innode_2] 1
interdiction[source_3,innode_4] 0
interdiction[source_2,innode_7] 0
interdiction[sink_3,innode_8] 0
WCcheckFlow[source_1,sink_3] 39
WCcheckFlow[innode_1,sink_16] 1
WCcheckFlow[innode_6,sink_13] 13
WCcheckFlow[sink_13,sink_14] 12
WCcheckFlow[sink_14,sink_10] 11
WCcheckFlow[sink_25,sink_26] 0
WCcheckFlow[sink_26,sink_9] 10
WCcheckFlow[sink_9,sink_18] 9
WCcheckFlow[sink_26,sink_4] -11
WCcheckFlow[sink_4,sink_20] -14
WCcheckFlow[sink_18,sink_6] 8
WCcheckFlow[sink_25,innode_8] -36
WCcheckFlow[sink_6,sink_7] 5
WCcheckFlow[sink_6,sink_22] 2
WCcheckFlow[sink_7,sink_24] 3
WCcheckFlow[sink_22,sink_1] 1
WCcheckFlow[sink_24,sink_21] 2
WCcheckFlow[sink_21,sink_12] 1
WCcheckFlow[sink_7,sink_5] 1
WCcheckFlow[sink_5,sink_17] 0
WCcheckFlow[sink_17,sink_4] -2
WCcheckFlow[sink_17,sink_8] 1
WCcheckFlow[sink_3,sink_23] 1
WCcheckFlow[sink_8,sink_20] 0
WCcheckFlow[sink_25,sink_20] 15
WCcheckFlow[sink_25,sink_15] 6
WCcheckFlow[sink_15,sink_29] 5
WCcheckFlow[sink_29,sink_28] 1
WCcheckFlow[sink_29,sink_2] 1
WCcheckFlow[sink_2,sink_15] 0
WCcheckFlow[sink_29,innode_7] 2
WCcheckFlow[innode_4,sink_19] -4
WCcheckFlow[sink_19,innode_3] -5
WCcheckFlow[innode_4,innode_5] 2
WCcheckFlow[sink_27,innode_5] -1
WCcheckFlow[sink_27,sink_19] 0
WCcheckFlow[sink_10,sink_11] 3
WCcheckFlow[sink_10,innode_2] 1
WCcheckFlow[sink_10,innode_3] 6
WCcheckFlow[innode_6,sink_25] -14
WCcheckFlow[sink_11,innode_1] 2
WCcheckFlow[sink_19,innode_2] 0
WCcheckFlow[source_3,innode_4] -1
WCcheckFlow[source_2,innode_7] -1
WCcheckFlow[sink_3,innode_8] 37
